data;

param n:=22;
param p:=3;
param r:=[1] 0 [2] 3 [3] 5 [4] 9 [5] 9 [6] 8 [7] 15 [8] 19 [9] 18 [10] 1 [11] 0 [12] 20 [13] 25 [14] 1 [15] 0 [16] 12 [17] 7 [18] 29 [19] 40 [20] 21 [21] 47 [22] 29 ;
param w:=[1] 35 [2] 24 [3] 32 [4] 75 [5] 77 [6] 77 [7] 42 [8] 93 [9] 84 [10] 32 [11] 7 [12] 9 [13] 16 [14] 36 [15] 66 [16] 7 [17] 7 [18] 10 [19] 26 [20] 11 [21] 39 [22] 28 ;

end;
